23
123
3
28
61
146
77
34
82
41
28
187
1
25
3
122
80
143
126
194
96
76
40
170
93
67
74
218
3
50
113
27
179
26
110
1
151
39
99
108
196
30
197
188
165
202
52
137
172
194
122
147
173
210
158
48
32
153
74
116
17
64
72
8
53
98
193
68
7
76
137
55
155
109
184
166
187
224
118
203
60
217
205
134
34
50
173
70
100
136
178
100
208
195
113
82
77
108
155
23
